Route #1: 194 41 198 4 68 114 120 61 66 129 92 156 35 106 55 70 62 111
Route #2: 118 148 150 9 74 153 172 10 140 88 109 80 199 130 177 29
Route #3: 39 124 90 176 145 34 14 100 166 21 192 131 173
Route #4: 36 104 91 77 64 146 123 78 191 107 1 51 76 133 49 60 59 33 23 147 115
Route #5: 53 134 167 179 25 112 2 83 46 98 135 89 116 54 52 57 95 58 102
Route #6: 27 196 175 30 44 65 81 67 163 8 97 169 31 82 3 117 69 40 38 5 32 200 13 11 113
Route #7: 121 152 165 159 19 144 122 96 126 189 20
Route #8: 162 43 158 79 17 86 127 139 128 185 190 73 132 56 143 110 15 160
Route #9: 24 84 138 85 149 141 42 170 164 171 193 108 26 155 181 157
Route #10: 45 183 71 63 72 16 87 37 187 12 182 180 197 142 184 174 47
Route #11: 151 22 136 103 137 48 188 93 7 161 195 6
Route #12: 28 168 99 125 18 154 101 75 186 105 119 50 94 178
Cost 146867
Time 312.52
